experiment/data/lkh-res/Vrp-Set-B-n52/Vrp-Set-B-n52-lkh/0.lkh1.vrp
NAME : 0
COMMENT : CVRP Instance
TYPE : CVRP
DIMENSION : 52
EDGE_WEIGHT_TYPE : EUC_2D
CAPACITY : 100
NODE_COORD_SECTION
1	2900	3300
2	4100	1100
3	3100	8700
4	9100	2700
5	5300	8700
6	700	1900
7	2700	1900
8	100	4100
9	800	2000
10	4000	9200
11	1400	2000
12	9200	3200
13	6200	9400
14	4500	9700
15	9600	3600
16	4700	10100
17	4000	9200
18	4900	9700
19	4800	1200
20	4500	10100
21	4600	1600
22	9200	3400
23	4900	9500
24	6200	9200
25	9600	2800
26	2800	2200
27	4700	9500
28	900	2100
29	9200	3000
30	1200	2200
31	4800	1200
32	9400	2800
33	4300	9900
34	800	4200
35	4300	9900
36	800	4200
37	3000	2000
38	1600	2400
39	3600	9200
40	9800	3400
41	3600	2800
42	2800	2600
43	4200	1800
44	200	5000
45	1600	2000
46	5600	9000
47	4500	9700
48	1700	2300
49	3400	8800
50	4700	9900
51	6200	9600
52	800	2400
DEMAND_SECTION
1	0
2	22
3	8
4	3
5	6
6	10
7	18
8	8
9	13
10	13
11	3
12	10
13	6
14	23
15	8
16	4
17	13
18	6
19	5
20	10
21	22
22	13
23	13
24	18
25	14
26	14
27	26
28	23
29	4
30	25
31	9
32	8
33	16
34	3
35	1
36	17
37	9
38	15
39	2
40	19
41	7
42	6
43	22
44	22
45	10
46	7
47	4
48	23
49	13
50	10
51	8
52	14
DEPOT_SECTION
1
-1
EOF
