experiment/data/lkh-res/Vrp-Set-B-n52/Vrp-Set-B-n52-lkh/0.lkh1.tour
NAME : 0.74993.tour
COMMENT : Length = 74993
COMMENT : Found by LKH-3 [Keld Helsgaun] Tue Apr  9 00:58:34 2024
TYPE : TOUR
DIMENSION : 58
TOUR_SECTION
1
22
12
29
4
32
25
40
15
46
5
56
48
52
8
44
36
34
58
42
26
7
37
54
2
19
31
21
43
41
53
39
33
35
20
16
50
18
23
51
13
24
55
45
11
6
9
28
30
38
57
3
49
10
17
47
14
27
-1
EOF
